12
 4  6  1  7 10 16  3 18  6 16 13  7
 7  5  7 14  5 15 10  6  9  3  8  5
 6 19 13 12  8  6  4 14 13 14 19  9
18 19 16  9  2  4 12 19 13  2 10  2
10  5 14  1 17 20 15 14 20 19  6  6
 7  5 16 12  7  8 14  5  7  7 15  5
 3 15  2 10 20  8 11 15 15  2 18 12
 9 14  4 18 16 20 12  4 15  5 20  4
17 15  4  5 10 20 19 14  2  7 19  8
12 14  5  5 16  6  4  9 17 14  7  8
 7  9  1 15  6 14 11 19  6  9  3  2
 9  3  4  8 17 11 20  9 15  9  1 18